(declare-fun temp3716_2 () (_ BitVec 64))
(declare-fun temp3716_1 () (_ BitVec 64))
(declare-fun temp3716_4 () (_ BitVec 64))
(declare-fun temp3716_3 () (_ BitVec 64))
(declare-fun temp3716_6 () (_ BitVec 64))
(declare-fun temp3716_5 () (_ BitVec 64))
(declare-fun temp3716_8 () (_ BitVec 64))
(declare-fun temp3716_7 () (_ BitVec 64))
(declare-fun temp3716_10 () (_ BitVec 64))
(declare-fun temp3716_9 () (_ BitVec 64))
(declare-fun temp3716_11 () (_ BitVec 64))
(declare-fun var2363642 () (_ BitVec 64))
(declare-fun var2363650 () (_ BitVec 64))
(declare-fun temp3716_12 () (_ BitVec 64))
(declare-fun var3679322 () (_ BitVec 64))
(declare-fun temp3716_13 () (_ BitVec 64))
(declare-fun temp3716_15 () (_ BitVec 64))
(declare-fun temp3716_14 () (_ BitVec 64))
(declare-fun temp3716_17 () (_ BitVec 64))
(declare-fun temp3716_16 () (_ BitVec 64))
(assert (= temp3716_2 #x0000000000000000))
(assert (= temp3716_1 temp3716_2))
(assert (= temp3716_4 #x0000000000000000))
(assert (= temp3716_3 temp3716_4))
(assert (= temp3716_6 #x0000000000000000))
(assert (= temp3716_5 temp3716_6))
(assert (= temp3716_8 #x000000000000002b))
(assert (= temp3716_7 temp3716_8))
(assert (= temp3716_10 #x0000000000000001))
(assert (= temp3716_9 temp3716_10))
(assert (= temp3716_11 #x0000000000000001))
(assert (= var2363642 temp3716_11))
(assert (= var2363650 var2363642))
(assert (= temp3716_12 #x0000000000000000))
(assert (= var3679322 temp3716_12))
(assert (= temp3716_13 #x0000000000000000))
(assert (or false (= var3679322 temp3716_13)))
(assert (= temp3716_15 #x0000000000000000))
(assert (= temp3716_14 temp3716_15))
(assert (= temp3716_17 #x0000000000000000))
(assert (= temp3716_16 temp3716_17))
(model-add temp3716_2 () (_ BitVec 64) #x0000000000000000)
(model-add temp3716_1 () (_ BitVec 64) #x0000000000000000)
(model-add temp3716_4 () (_ BitVec 64) #x0000000000000000)
(model-add temp3716_3 () (_ BitVec 64) #x0000000000000000)
(model-add temp3716_6 () (_ BitVec 64) #x0000000000000000)
(model-add temp3716_5 () (_ BitVec 64) #x0000000000000000)
(model-add temp3716_8 () (_ BitVec 64) #x000000000000002b)
(model-add temp3716_7 () (_ BitVec 64) #x000000000000002b)
(model-add temp3716_10 () (_ BitVec 64) #x0000000000000001)
(model-add temp3716_9 () (_ BitVec 64) #x0000000000000001)
(model-add temp3716_11 () (_ BitVec 64) #x0000000000000001)
(model-add var2363642 () (_ BitVec 64) #x0000000000000001)
(model-add var2363650 () (_ BitVec 64) #x0000000000000001)
(model-add temp3716_12 () (_ BitVec 64) #x0000000000000000)
(model-add var3679322 () (_ BitVec 64) #x0000000000000000)
(model-add temp3716_13 () (_ BitVec 64) #x0000000000000000)





